certificates/rado_a9_c22_N32.cnf
c Rad2 upper bound instance: x1 + 9*x2 - x3 = 22, interval [1,32]
p cnf 32 200
1 3 6 0
-1 -3 -6 0
1 4 15 0
-1 -4 -15 0
1 5 24 0
-1 -5 -24 0
2 3 7 0
-2 -3 -7 0
2 4 16 0
-2 -4 -16 0
2 5 25 0
-2 -5 -25 0
3 8 0
-3 -8 0
3 4 17 0
-3 -4 -17 0
3 5 26 0
-3 -5 -26 0
3 4 9 0
-3 -4 -9 0
4 18 0
-4 -18 0
4 5 27 0
-4 -5 -27 0
1 2 5 0
-1 -2 -5 0
3 5 10 0
-3 -5 -10 0
4 5 19 0
-4 -5 -19 0
5 28 0
-5 -28 0
2 6 0
-2 -6 0
3 6 11 0
-3 -6 -11 0
4 6 20 0
-4 -6 -20 0
5 6 29 0
-5 -6 -29 0
3 7 12 0
-3 -7 -12 0
4 7 21 0
-4 -7 -21 0
5 7 30 0
-5 -7 -30 0
2 4 8 0
-2 -4 -8 0
3 8 13 0
-3 -8 -13 0
4 8 22 0
-4 -8 -22 0
5 8 31 0
-5 -8 -31 0
2 5 9 0
-2 -5 -9 0
3 9 14 0
-3 -9 -14 0
4 9 23 0
-4 -9 -23 0
5 9 32 0
-5 -9 -32 0
2 6 10 0
-2 -6 -10 0
3 10 15 0
-3 -10 -15 0
4 10 24 0
-4 -10 -24 0
2 7 11 0
-2 -7 -11 0
3 11 16 0
-3 -11 -16 0
4 11 25 0
-4 -11 -25 0
2 8 12 0
-2 -8 -12 0
3 12 17 0
-3 -12 -17 0
4 12 26 0
-4 -12 -26 0
2 9 13 0
-2 -9 -13 0
3 13 18 0
-3 -13 -18 0
4 13 27 0
-4 -13 -27 0
1 14 0
-1 -14 0
2 10 14 0
-2 -10 -14 0
3 14 19 0
-3 -14 -19 0
4 14 28 0
-4 -14 -28 0
1 2 15 0
-1 -2 -15 0
2 11 15 0
-2 -11 -15 0
3 15 20 0
-3 -15 -20 0
4 15 29 0
-4 -15 -29 0
1 3 16 0
-1 -3 -16 0
2 12 16 0
-2 -12 -16 0
3 16 21 0
-3 -16 -21 0
4 16 30 0
-4 -16 -30 0
1 4 17 0
-1 -4 -17 0
2 13 17 0
-2 -13 -17 0
3 17 22 0
-3 -17 -22 0
4 17 31 0
-4 -17 -31 0
1 5 18 0
-1 -5 -18 0
2 14 18 0
-2 -14 -18 0
3 18 23 0
-3 -18 -23 0
4 18 32 0
-4 -18 -32 0
1 6 19 0
-1 -6 -19 0
2 15 19 0
-2 -15 -19 0
3 19 24 0
-3 -19 -24 0
1 7 20 0
-1 -7 -20 0
2 16 20 0
-2 -16 -20 0
3 20 25 0
-3 -20 -25 0
1 8 21 0
-1 -8 -21 0
2 17 21 0
-2 -17 -21 0
3 21 26 0
-3 -21 -26 0
1 9 22 0
-1 -9 -22 0
2 18 22 0
-2 -18 -22 0
3 22 27 0
-3 -22 -27 0
1 10 23 0
-1 -10 -23 0
2 19 23 0
-2 -19 -23 0
3 23 28 0
-3 -23 -28 0
1 11 24 0
-1 -11 -24 0
2 20 24 0
-2 -20 -24 0
3 24 29 0
-3 -24 -29 0
1 12 25 0
-1 -12 -25 0
2 21 25 0
-2 -21 -25 0
3 25 30 0
-3 -25 -30 0
1 13 26 0
-1 -13 -26 0
2 22 26 0
-2 -22 -26 0
3 26 31 0
-3 -26 -31 0
1 14 27 0
-1 -14 -27 0
2 23 27 0
-2 -23 -27 0
3 27 32 0
-3 -27 -32 0
1 15 28 0
-1 -15 -28 0
2 24 28 0
-2 -24 -28 0
1 16 29 0
-1 -16 -29 0
2 25 29 0
-2 -25 -29 0
1 17 30 0
-1 -17 -30 0
2 26 30 0
-2 -26 -30 0
1 18 31 0
-1 -18 -31 0
2 27 31 0
-2 -27 -31 0
1 19 32 0
-1 -19 -32 0
2 28 32 0
-2 -28 -32 0
