certificates/rado_a9_c22_N32.drat
-28 -30 -32 0
-29 -3 28 0
-30 -31 -32 0
-5 30 -31 0
-31 -32 0
d -30 -31 -32 0
-28 -32 0
d -28 -30 -32 0
-27 -32 0
-32 0
-2 -5 0
d -2 -1 -5 0
-5 0
28 0
9 0
-3 22 0
-29 -1 0
d -16 -29 -1 0
-2 0
1 0
6 0
25 0
-14 0
-15 0
-19 0
-3 0
-22 0
-29 0
-12 0
10 0
18 0
4 0
0
